3 3 2
30 2 18 1 46 2 44 0 44 1 30 2 17 1 46 0 12 2 26 0 22 2 18 1 20 0 9 2 20 1 34 0 19 2 19 1 28 2 21 1 35 0 37 2 8 1 21 0 41 2 9 1 5 0 48 1 35 2 5 1 16 
30 0 26 1 41 0 38 2 40 0 30 2 40 1 23 0 26 2 29 0 47 2 21 0 4 2 23 0 45 2 6 1 23 0 34 1 43 2 1 1 0 0 28 2 37 0 31 1 21 0 33 1 31 0 25 2 40 1 10 2 44 
30 0 6 1 6 2 21 1 27 2 41 1 43 0 46 1 3 2 10 0 40 1 5 0 41 1 36 2 8 0 11 2 20 0 9 2 11 0 18 1 27 2 8 1 30 0 13 2 33 0 42 1 16 0 38 1 25 0 6 2 14 

-------------
